30
1 0 251
2 0 282
2 1 310
3 0 8
3 1 190
4 0 21
4 1 123
4 2 315
4 3 51
5 0 262
5 1 7
5 2 192
5 3 104
5 4 26
6 0 152
6 1 77
6 2 116
6 3 152
6 4 74
6 5 262
7 0 59
7 1 253
7 2 130
7 3 54
7 5 78
8 0 41
8 1 56
8 2 181
8 3 191
8 4 159
8 5 148
8 6 267
8 7 204
9 0 317
9 1 97
9 2 287
9 3 167
9 4 143
9 5 226
9 6 179
9 7 101
10 1 261
10 2 115
10 3 36
10 4 57
10 5 26
10 6 320
10 7 277
10 8 125
10 9 271
11 0 185
11 1 314
11 3 244
11 4 178
11 5 118
11 6 225
11 7 254
11 8 167
11 9 26
11 10 50
12 0 206
12 1 190
12 2 253
12 3 201
12 5 267
12 6 90
12 7 30
12 8 63
12 9 302
12 10 3
12 11 214
13 0 244
13 1 194
13 2 273
13 3 259
13 4 126
13 5 40
13 6 104
13 7 98
13 8 85
13 9 227
13 10 9
13 11 108
13 12 158
14 0 205
14 1 96
14 2 160
14 3 136
14 4 121
14 6 143
14 7 5
14 8 171
14 9 44
14 10 76
14 11 75
14 12 154
15 0 152
15 1 106
15 2 103
15 3 300
15 4 54
15 5 280
15 7 260
15 8 283
15 10 241
15 11 67
15 12 267
15 13 257
16 0 222
16 2 24
16 3 250
16 5 123
16 6 179
16 7 314
16 8 91
16 9 167
16 10 84
16 11 106
16 13 189
16 14 3
16 15 233
17 0 184
17 1 5
17 2 215
17 3 139
17 4 240
17 5 3
17 6 202
17 7 243
17 8 100
17 9 208
17 10 210
17 11 101
17 12 115
17 13 314
17 14 217
18 0 194
18 1 204
18 2 47
18 3 170
18 5 164
18 6 7
18 7 208
18 8 223
18 10 158
18 11 283
18 12 129
18 13 213
18 15 202
18 16 134
18 17 150
19 0 24
19 1 271
19 2 156
19 3 28
19 4 177
19 5 133
19 6 86
19 7 154
19 8 151
19 9 81
19 10 30
19 11 181
19 12 119
19 13 36
19 14 258
19 15 260
19 16 305
19 17 118
20 0 153
20 1 86
20 2 237
20 4 101
20 6 294
20 7 23
20 8 22
20 9 287
20 10 79
20 11 177
20 13 259
20 14 99
20 15 316
20 16 303
20 17 75
20 18 282
20 19 303
21 0 39
21 1 180
21 2 114
21 3 203
21 4 299
21 5 103
21 6 30
21 7 249
21 8 146
21 9 213
21 10 154
21 11 246
21 13 289
21 14 11
21 15 254
21 16 45
21 18 11
21 19 144
21 20 222
22 0 125
22 1 298
22 2 204
22 4 110
22 5 162
22 6 313
22 7 299
22 9 312
22 10 13
22 12 56
22 13 313
22 14 286
22 16 132
22 18 109
22 19 254
22 20 251
23 0 74
23 1 295
23 2 125
23 4 260
23 5 52
23 7 193
23 9 4
23 10 196
23 11 184
23 12 150
23 13 129
23 14 65
23 16 288
23 17 82
23 18 159
23 19 179
23 20 295
23 22 274
24 0 56
24 1 24
24 2 306
24 3 74
24 4 177
24 6 27
24 7 83
24 8 51
24 9 245
24 10 109
24 11 158
24 12 298
24 13 85
24 14 120
24 16 318
24 17 320
24 18 254
24 19 167
24 20 289
24 21 142
24 22 37
24 23 320
25 0 23
25 1 94
25 2 13
25 3 169
25 4 36
25 5 31
25 6 234
25 7 36
25 8 7
25 9 157
25 10 155
25 11 305
25 12 276
25 14 10
25 15 221
25 16 201
25 17 146
25 18 159
25 19 133
25 20 80
25 21 305
25 22 138
25 23 71
25 24 95
26 0 103
26 1 55
26 2 132
26 3 133
26 4 293
26 5 44
26 6 215
26 7 205
26 8 299
26 10 228
26 11 106
26 12 170
26 13 205
26 16 15
26 17 1
26 18 112
26 19 72
26 20 183
26 21 141
26 22 156
26 24 236
26 25 172
27 0 56
27 1 242
27 2 212
27 3 259
27 4 286
27 5 225
27 6 121
27 7 81
27 8 33
27 9 116
27 10 302
27 11 113
27 12 272
27 13 217
27 14 57
27 15 220
27 16 311
27 17 317
27 18 231
27 19 198
27 20 264
27 22 8
27 24 200
27 25 273
27 26 204
28 0 190
28 1 58
28 2 64
28 3 228
28 4 109
28 5 139
28 6 294
28 7 310
28 9 42
28 10 154
28 11 287
28 12 139
28 13 40
28 14 302
28 15 58
28 16 5
28 17 319
28 18 92
28 19 203
28 20 4
28 21 267
28 22 27
28 24 33
28 25 179
28 26 96
28 27 146
29 0 278
29 1 1
29 2 211
29 3 274
29 4 144
29 5 30
29 6 107
29 7 271
29 9 215
29 10 97
29 11 243
29 13 223
29 14 31
29 15 213
29 16 182
29 18 191
29 19 153
29 20 148
29 21 131
29 22 36
29 23 130
29 24 8
29 26 27
29 27 140
29 28 192
